% File represents an instance of a Composite Structure problem to be solved by a CP framework
% Created on 2025-03-25 14:05:14.258
T = 60;
n = 25;
m = 40;
edges = [(2, 1),
(7, 6),
(11, 12),
(17, 16),
(22, 21),
(2, 3),
(7, 8),
(13, 12),
(18, 17),
(23, 22),
(4, 3),
(9, 8),
(13, 14),
(19, 18),
(23, 24),
(5, 4),
(10, 9),
(15, 14),
(20, 19),
(24, 25),
(6, 1),
(11, 6),
(11, 16),
(21, 16),
(2, 7),
(7, 12),
(12, 17),
(22, 17),
(8, 3),
(13, 8),
(13, 18),
(23, 18),
(4, 9),
(14, 9),
(14, 19),
(19, 24),
(10, 5),
(10, 15),
(15, 20),
(20, 25)];
counts = [|9, 21, 9, 6,
|10, 24, 10, 11,
|9, 23, 9, 5,
|10, 26, 9, 7,
|10, 27, 10, 7,
|10, 21, 9, 7,
|10, 23, 9, 11,
|10, 23, 9, 7,
|10, 24, 9, 7,
|11, 27, 10, 12,
|10, 23, 10, 7,
|10, 23, 9, 7,
|12, 26, 9, 12,
|11, 26, 9, 12,
|11, 27, 9, 12,
|9, 20, 6, 5,
|9, 21, 7, 5,
|11, 25, 9, 5,
|11, 26, 9, 10,
|11, 26, 9, 12,
|9, 21, 6, 11,
|9, 25, 7, 11,
|14, 26, 9, 11,
|11, 26, 9, 8,
|11, 26, 9, 6|];
